NAME          
ROWS
 N  OBJ
 L  c1_1
 L  c2_1
 L  c3
 L  c4
 G  c1
 G  c2
COLUMNS
    MARKER    'MARKER'                 'INTORG'
    x         c1_1      1
    x         c2_1      -1
    x         c3        1
    x         c4        1
    x         c2        1
    x         OBJ       1
    y         c1_1      -1
    y         c4        -1
    y         c1        1
    y         c2        -1
    y         OBJ       -2
    z         c2_1      1
    z         c3        -1
    z         c4        1
    z         c1        -1
    z         OBJ       -1
RHS
    rhs       c1_1      3
    rhs       c2_1      2
    rhs       c3        -3
    rhs       c4        3
    rhs       c1        -5
    rhs       c2        7
RANGES
BOUNDS
 LO bounds    x         0
 PL bounds    x
 FR bounds    y
 FR bounds    z
ENDATA
